\ This file has been generated by DOcplex
\ ENCODING=ISO-8859-1
\Problem name: random_problem.lp

Minimize
 obj: - 236 x0 - 118 x1 - 312 x2 - 156 x3 - 340 x4 - 170 x5 - 104 x6 - 52 x7
      - 262 x8 - 131 x9 + 56 x10 + 28 x11 - 236 x12 - 118 x13 - 286 x14
      - 143 x15 + [ 2448 x0^2 + 2448 x0*x1 + 736 x0*x4 + 368 x0*x5 + 560 x0*x6
      + 280 x0*x7 + 1120 x0*x8 + 560 x0*x9 + 240 x0*x10 + 120 x0*x11
      + 464 x0*x12 + 232 x0*x13 + 1856 x0*x14 + 928 x0*x15 + 612 x1^2
      + 368 x1*x4 + 184 x1*x5 + 280 x1*x6 + 140 x1*x7 + 560 x1*x8 + 280 x1*x9
      + 120 x1*x10 + 60 x1*x11 + 232 x1*x12 + 116 x1*x13 + 928 x1*x14
      + 464 x1*x15 + 1168 x2^2 + 1168 x2*x3 - 320 x2*x4 - 160 x2*x5 - 288 x2*x6
      - 144 x2*x7 + 240 x2*x8 + 120 x2*x9 + 240 x2*x10 + 120 x2*x11 - 48 x2*x12
      - 24 x2*x13 + 112 x2*x14 + 56 x2*x15 + 292 x3^2 - 160 x3*x4 - 80 x3*x5
      - 144 x3*x6 - 72 x3*x7 + 120 x3*x8 + 60 x3*x9 + 120 x3*x10 + 60 x3*x11
      - 24 x3*x12 - 12 x3*x13 + 56 x3*x14 + 28 x3*x15 + 528 x4^2 + 528 x4*x5
      + 288 x4*x6 + 144 x4*x7 + 480 x4*x8 + 240 x4*x9 + 320 x4*x10 + 160 x4*x11
      + 448 x4*x12 + 224 x4*x13 + 464 x4*x14 + 232 x4*x15 + 132 x5^2 + 144 x5*x6
      + 72 x5*x7 + 240 x5*x8 + 120 x5*x9 + 160 x5*x10 + 80 x5*x11 + 224 x5*x12
      + 112 x5*x13 + 232 x5*x14 + 116 x5*x15 + 2608 x6^2 + 2608 x6*x7
      + 752 x6*x8 + 376 x6*x9 + 640 x6*x10 + 320 x6*x11 - 80 x6*x12 - 40 x6*x13
      + 652 x7^2 + 376 x7*x8 + 188 x7*x9 + 320 x7*x10 + 160 x7*x11 - 40 x7*x12
      - 20 x7*x13 + 696 x8^2 + 696 x8*x9 + 704 x8*x10 + 352 x8*x11 + 416 x8*x12
      + 208 x8*x13 + 1008 x8*x14 + 504 x8*x15 + 174 x9^2 + 352 x9*x10
      + 176 x9*x11 + 208 x9*x12 + 104 x9*x13 + 504 x9*x14 + 252 x9*x15
      + 536 x10^2 + 536 x10*x11 + 192 x10*x12 + 96 x10*x13 + 400 x10*x14
      + 200 x10*x15 + 134 x11^2 + 96 x11*x12 + 48 x11*x13 + 200 x11*x14
      + 100 x11*x15 + 464 x12^2 + 464 x12*x13 + 208 x12*x14 + 104 x12*x15
      + 116 x13^2 + 104 x13*x14 + 52 x13*x15 + 728 x14^2 + 728 x14*x15
      + 182 x15^2 ]/2
Subject To
 c0: 2 x0 + x1 + 2 x2 + x3 + 2 x4 + x5 + 2 x6 + x7 + 2 x8 + x9 + 2 x10 + x11
     + 2 x12 + x13 + 2 x14 + x15 = 3

Bounds
 0 <= x0 <= 1
 0 <= x1 <= 1
 0 <= x2 <= 1
 0 <= x3 <= 1
 0 <= x4 <= 1
 0 <= x5 <= 1
 0 <= x6 <= 1
 0 <= x7 <= 1
 0 <= x8 <= 1
 0 <= x9 <= 1
 0 <= x10 <= 1
 0 <= x11 <= 1
 0 <= x12 <= 1
 0 <= x13 <= 1
 0 <= x14 <= 1
 0 <= x15 <= 1

Binaries
 x0 x1 x2 x3 x4 x5 x6 x7 x8 x9 x10 x11 x12 x13 x14 x15
End
